unsat
(define-fun SC ((s (_ BitVec 4)) (t (_ BitVec 4))) Bool (bvslt t (bvlshr s (bvlshr s #b0011))))
22.80user 0.23system 0:23.03elapsed 99%CPU (0avgtext+0avgdata 381344maxresident)k
0inputs+8outputs (0major+94130minor)pagefaults 0swaps
